NAME : instances/clustered-mixed-tsp/instance-0.tsp
COMMENT : No Comment
TYPE : TSP
DIMENSION: 47
EDGE_WEIGHT_TYPE : EUC_2D
NODE_COORD_SECTION
1 1281 984 
2 1455 1721 
3 393 1058 
4 1195 930 
5 498 1102 
6 1434 1609 
7 840 52 
8 943 1673 
9 507 1096 
10 471 920 
11 2045 1704 
12 526 1075 
13 546 1022 
14 1874 676 
15 1747 1870 
16 1972 1771 
17 535 1012 
18 1761 1873 
19 1490 1693 
20 2032 1815 
21 1485 1554 
22 1346 665 
23 1405 1646 
24 1977 1621 
25 411 1025 
26 1818 727 
27 1804 762 
28 427 994 
29 387 1057 
30 1916 841 
31 1923 1749 
32 1229 582 
33 391 1060 
34 2026 1722 
35 1788 762 
36 462 962 
37 1971 1716 
38 811 -13 
39 1898 808 
40 1804 1761 
41 1705 1857 
42 863 1572 
43 790 1583 
44 1822 680 
45 566 933 
46 1429 1641 
47 1533 1582 
EOF
